20	5
0	6	4	2	3	1	13	5
1	1	6
2	1	15
3	0
4	2	11	18
5	1	17
6	1	16
7	1	20
8	1	9
9	2	12	18
10	1	7
11	2	16	14
12	1	19
13	1	8
14	1	10
15	0
16	1	21
17	1	21
18	1	21
19	1	21
20	1	21
21	0
0	0	0	0	0	0	0
1	9	0	4	4	0	0
2	2	4	5	2	3	3
3	6	2	3	4	0	0
4	5	1	1	4	1	3
5	9	2	1	0	1	0
6	1	0	3	2	4	5
7	10	4	4	4	4	4
8	3	0	2	2	4	0
9	1	4	3	4	1	5
10	10	3	5	0	1	0
11	3	0	4	0	2	0
12	9	0	0	1	3	5
13	6	4	5	4	5	3
14	1	5	0	0	1	4
15	10	4	4	1	4	5
16	3	3	1	0	0	1
17	9	3	4	1	4	4
18	7	4	5	0	3	1
19	10	5	2	0	4	2
20	6	0	3	1	1	0
21	0	0	0	0	0	0
5	5	5	5	5
